# Solution for model LP
# Objective value = 3.4469591894587026e-01
edge_name[0_0] 0
edge_name[0_1] 0
edge_name[0_2] 0
edge_name[0_3] 0
edge_name[0_4] 0
edge_name[0_5] 0
edge_name[0_6] 0
edge_name[0_7] 0
edge_name[0_8] 0
edge_name[0_9] 0
edge_name[0_10] 0
edge_name[0_11] 0
edge_name[0_12] 3.8852337860081237e-01
edge_name[0_13] 0
edge_name[0_14] 0
edge_name[0_15] 0
edge_name[0_16] 0
edge_name[0_17] 0
edge_name[0_18] 0
edge_name[0_19] 0
edge_name[0_20] 0
edge_name[0_21] 0
edge_name[0_22] 0
edge_name[0_23] 0
edge_name[0_24] 0
edge_name[0_25] 0
edge_name[0_26] 0
edge_name[0_27] 0
edge_name[0_28] 0
edge_name[0_29] 0
edge_name[1_0] 0
edge_name[1_1] 0
edge_name[1_2] 0
edge_name[1_3] 0
edge_name[1_4] 0
edge_name[1_5] 0
edge_name[1_6] 0
edge_name[1_7] 0
edge_name[1_8] 0
edge_name[1_9] 0
edge_name[1_10] 0
edge_name[1_11] 0
edge_name[1_12] 0
edge_name[1_13] 0
edge_name[1_14] 0
edge_name[1_15] 0
edge_name[1_16] 0
edge_name[1_17] 0
edge_name[1_18] 0
edge_name[1_19] 0
edge_name[1_20] 0
edge_name[1_21] 0
edge_name[1_22] 0
edge_name[1_23] 0
edge_name[1_24] 0
edge_name[1_25] 0
edge_name[1_26] 0
edge_name[1_27] 0
edge_name[1_28] 0
edge_name[1_29] 0
edge_name[2_0] 0
edge_name[2_1] 0
edge_name[2_2] 0
edge_name[2_3] 0
edge_name[2_4] 0
edge_name[2_5] 0
edge_name[2_6] 0
edge_name[2_7] 0
edge_name[2_8] 0
edge_name[2_9] 0
edge_name[2_10] 0
edge_name[2_11] 0
edge_name[2_12] 0
edge_name[2_13] 0
edge_name[2_14] 0
edge_name[2_15] 0
edge_name[2_16] 0
edge_name[2_17] 2.3729228724347859e-01
edge_name[2_18] 0
edge_name[2_19] 0
edge_name[2_20] 0
edge_name[2_21] 0
edge_name[2_22] 0
edge_name[2_23] 0
edge_name[2_24] 0
edge_name[2_25] 0
edge_name[2_26] 0
edge_name[2_27] 0
edge_name[2_28] 0
edge_name[2_29] 0
edge_name[3_0] 0
edge_name[3_1] 0
edge_name[3_2] 0
edge_name[3_3] 0
edge_name[3_4] 0
edge_name[3_5] 0
edge_name[3_6] 0
edge_name[3_7] 0
edge_name[3_8] 0
edge_name[3_9] 0
edge_name[3_10] 0
edge_name[3_11] 0
edge_name[3_12] 0
edge_name[3_13] 0
edge_name[3_14] 0
edge_name[3_15] 0
edge_name[3_16] 0
edge_name[3_17] 0
edge_name[3_18] 0
edge_name[3_19] 0
edge_name[3_20] 0
edge_name[3_21] 0
edge_name[3_22] 0
edge_name[3_23] 0
edge_name[3_24] 0
edge_name[3_25] 5.3120700538614862e-01
edge_name[3_26] 0
edge_name[3_27] 0
edge_name[3_28] 0
edge_name[3_29] 0
edge_name[4_0] 0
edge_name[4_1] 0
edge_name[4_2] 0
edge_name[4_3] 0
edge_name[4_4] 0
edge_name[4_5] 0
edge_name[4_6] 0
edge_name[4_7] 0
edge_name[4_8] 0
edge_name[4_9] 0
edge_name[4_10] 0
edge_name[4_11] 0
edge_name[4_12] 0
edge_name[4_13] 0
edge_name[4_14] 0
edge_name[4_15] 0
edge_name[4_16] 0
edge_name[4_17] 0
edge_name[4_18] 7.8332652797146951e-01
edge_name[4_19] 0
edge_name[4_20] 0
edge_name[4_21] 0
edge_name[4_22] 0
edge_name[4_23] 2.1997550069729016e-01
edge_name[4_24] 0
edge_name[4_25] 0
edge_name[4_26] 0
edge_name[4_27] 0
edge_name[4_28] 0
edge_name[4_29] 0
edge_name[5_0] 0
edge_name[5_1] 0
edge_name[5_2] 0
edge_name[5_3] 0
edge_name[5_4] 0
edge_name[5_5] 0
edge_name[5_6] 0
edge_name[5_7] 0
edge_name[5_8] 0
edge_name[5_9] 0
edge_name[5_10] 0
edge_name[5_11] 0
edge_name[5_12] 0
edge_name[5_13] 0
edge_name[5_14] 7.2388712887600493e-01
edge_name[5_15] 0
edge_name[5_16] 0
edge_name[5_17] 0
edge_name[5_18] 0
edge_name[5_19] 0
edge_name[5_20] 0
edge_name[5_21] 0
edge_name[5_22] 0
edge_name[5_23] 0
edge_name[5_24] 0
edge_name[5_25] 0
edge_name[5_26] 0
edge_name[5_27] 0
edge_name[5_28] 0
edge_name[5_29] 0
edge_name[6_0] 0
edge_name[6_1] 0
edge_name[6_2] 0
edge_name[6_3] 0
edge_name[6_4] 0
edge_name[6_5] 0
edge_name[6_6] 0
edge_name[6_7] 0
edge_name[6_8] 0
edge_name[6_9] 0
edge_name[6_10] 0
edge_name[6_11] 0
edge_name[6_12] 0
edge_name[6_13] 0
edge_name[6_14] 0
edge_name[6_15] 0
edge_name[6_16] 0
edge_name[6_17] 0
edge_name[6_18] 0
edge_name[6_19] 0
edge_name[6_20] 0
edge_name[6_21] 0
edge_name[6_22] 0
edge_name[6_23] 0
edge_name[6_24] 2.5439906761231068e-01
edge_name[6_25] 0
edge_name[6_26] 0
edge_name[6_27] 0
edge_name[6_28] 0
edge_name[6_29] 0
edge_name[7_0] 0
edge_name[7_1] 0
edge_name[7_2] 0
edge_name[7_3] 0
edge_name[7_4] 0
edge_name[7_5] 0
edge_name[7_6] 0
edge_name[7_7] 0
edge_name[7_8] 0
edge_name[7_9] 0
edge_name[7_10] 0
edge_name[7_11] 0
edge_name[7_12] 0
edge_name[7_13] 0
edge_name[7_14] 0
edge_name[7_15] 0
edge_name[7_16] 0
edge_name[7_17] 0
edge_name[7_18] 0
edge_name[7_19] 0
edge_name[7_20] 0
edge_name[7_21] 0
edge_name[7_22] 0
edge_name[7_23] 0
edge_name[7_24] 0
edge_name[7_25] 0
edge_name[7_26] 0
edge_name[7_27] 0
edge_name[7_28] 0
edge_name[7_29] 0
edge_name[8_0] 0
edge_name[8_1] 0
edge_name[8_2] 0
edge_name[8_3] 0
edge_name[8_4] 0
edge_name[8_5] 0
edge_name[8_6] 0
edge_name[8_7] 0
edge_name[8_8] 0
edge_name[8_9] 0
edge_name[8_10] 0
edge_name[8_11] 0
edge_name[8_12] 0
edge_name[8_13] 0
edge_name[8_14] 0
edge_name[8_15] 0
edge_name[8_16] 0
edge_name[8_17] 0
edge_name[8_18] 0
edge_name[8_19] 0
edge_name[8_20] 0
edge_name[8_21] 1.5881289249213146e-02
edge_name[8_22] 0
edge_name[8_23] 0
edge_name[8_24] 0
edge_name[8_25] 0
edge_name[8_26] 0
edge_name[8_27] 0
edge_name[8_28] 0
edge_name[8_29] 0
edge_name[9_0] 0
edge_name[9_1] 0
edge_name[9_2] 0
edge_name[9_3] 0
edge_name[9_4] 0
edge_name[9_5] 0
edge_name[9_6] 0
edge_name[9_7] 0
edge_name[9_8] 0
edge_name[9_9] 0
edge_name[9_10] 0
edge_name[9_11] 0
edge_name[9_12] 0
edge_name[9_13] 0
edge_name[9_14] 0
edge_name[9_15] 0
edge_name[9_16] 0
edge_name[9_17] 0
edge_name[9_18] 0
edge_name[9_19] 0
edge_name[9_20] 0
edge_name[9_21] 0
edge_name[9_22] 0
edge_name[9_23] 0
edge_name[9_24] 0
edge_name[9_25] 0
edge_name[9_26] 0
edge_name[9_27] 0
edge_name[9_28] 0
edge_name[9_29] 0
edge_name[10_0] 0
edge_name[10_1] 0
edge_name[10_2] 0
edge_name[10_3] 0
edge_name[10_4] 0
edge_name[10_5] 0
edge_name[10_6] 0
edge_name[10_7] 0
edge_name[10_8] 0
edge_name[10_9] 0
edge_name[10_10] 2.1856835831958590e-01
edge_name[10_11] 0
edge_name[10_12] 0
edge_name[10_13] 0
edge_name[10_14] 0
edge_name[10_15] 0
edge_name[10_16] 0
edge_name[10_17] 0
edge_name[10_18] 0
edge_name[10_19] 0
edge_name[10_20] 0
edge_name[10_21] 0
edge_name[10_22] 0
edge_name[10_23] 0
edge_name[10_24] 0
edge_name[10_25] 0
edge_name[10_26] 0
edge_name[10_27] 0
edge_name[10_28] 0
edge_name[10_29] 0
edge_name[11_0] 0
edge_name[11_1] 0
edge_name[11_2] 0
edge_name[11_3] 0
edge_name[11_4] 0
edge_name[11_5] 0
edge_name[11_6] 0
edge_name[11_7] 0
edge_name[11_8] 0
edge_name[11_9] 0
edge_name[11_10] 0
edge_name[11_11] 0
edge_name[11_12] 0
edge_name[11_13] 0
edge_name[11_14] 0
edge_name[11_15] 0
edge_name[11_16] 0
edge_name[11_17] 0
edge_name[11_18] 0
edge_name[11_19] 0
edge_name[11_20] 0
edge_name[11_21] 0
edge_name[11_22] 0
edge_name[11_23] 0
edge_name[11_24] 0
edge_name[11_25] 0
edge_name[11_26] 0
edge_name[11_27] 0
edge_name[11_28] 0
edge_name[11_29] 0
edge_name[12_0] 2.7111589021301941e-01
edge_name[12_1] 0
edge_name[12_2] 0
edge_name[12_3] 0
edge_name[12_4] 0
edge_name[12_5] 0
edge_name[12_6] 0
edge_name[12_7] 0
edge_name[12_8] 0
edge_name[12_9] 0
edge_name[12_10] 0
edge_name[12_11] 0
edge_name[12_12] 0
edge_name[12_13] 0
edge_name[12_14] 0
edge_name[12_15] 0
edge_name[12_16] 0
edge_name[12_17] 0
edge_name[12_18] 0
edge_name[12_19] 0
edge_name[12_20] 0
edge_name[12_21] 0
edge_name[12_22] 0
edge_name[12_23] 0
edge_name[12_24] 0
edge_name[12_25] 0
edge_name[12_26] 0
edge_name[12_27] 0
edge_name[12_28] 0
edge_name[12_29] 0
edge_name[13_0] 0
edge_name[13_1] 0
edge_name[13_2] 0
edge_name[13_3] 0
edge_name[13_4] 0
edge_name[13_5] 0
edge_name[13_6] 0
edge_name[13_7] 0
edge_name[13_8] 0
edge_name[13_9] 0
edge_name[13_10] 0
edge_name[13_11] 0
edge_name[13_12] 0
edge_name[13_13] 0
edge_name[13_14] 0
edge_name[13_15] 0
edge_name[13_16] 0
edge_name[13_17] 0
edge_name[13_18] 0
edge_name[13_19] 0
edge_name[13_20] 0
edge_name[13_21] 9.5163195950319579e-02
edge_name[13_22] 0
edge_name[13_23] 0
edge_name[13_24] 0
edge_name[13_25] 0
edge_name[13_26] 0
edge_name[13_27] 0
edge_name[13_28] 0
edge_name[13_29] 0
edge_name[14_0] 0
edge_name[14_1] 0
edge_name[14_2] 0
edge_name[14_3] 0
edge_name[14_4] 0
edge_name[14_5] 1.3052676863765286e-01
edge_name[14_6] 0
edge_name[14_7] 0
edge_name[14_8] 0
edge_name[14_9] 0
edge_name[14_10] 0
edge_name[14_11] 0
edge_name[14_12] 0
edge_name[14_13] 0
edge_name[14_14] 0
edge_name[14_15] 0
edge_name[14_16] 0
edge_name[14_17] 0
edge_name[14_18] 0
edge_name[14_19] 0
edge_name[14_20] 0
edge_name[14_21] 0
edge_name[14_22] 0
edge_name[14_23] 0
edge_name[14_24] 0
edge_name[14_25] 0
edge_name[14_26] 0
edge_name[14_27] 0
edge_name[14_28] 0
edge_name[14_29] 0
edge_name[15_0] 0
edge_name[15_1] 0
edge_name[15_2] 0
edge_name[15_3] 0
edge_name[15_4] 0
edge_name[15_5] 0
edge_name[15_6] 0
edge_name[15_7] 7.4344951884964727e-01
edge_name[15_8] 0
edge_name[15_9] 0
edge_name[15_10] 0
edge_name[15_11] 0
edge_name[15_12] 0
edge_name[15_13] 0
edge_name[15_14] 0
edge_name[15_15] 0
edge_name[15_16] 0
edge_name[15_17] 0
edge_name[15_18] 0
edge_name[15_19] 0
edge_name[15_20] 0
edge_name[15_21] 0
edge_name[15_22] 0
edge_name[15_23] 0
edge_name[15_24] 0
edge_name[15_25] 0
edge_name[15_26] 0
edge_name[15_27] 0
edge_name[15_28] 0
edge_name[15_29] 0
edge_name[16_0] 0
edge_name[16_1] 0
edge_name[16_2] 0
edge_name[16_3] 0
edge_name[16_4] 0
edge_name[16_5] 0
edge_name[16_6] 0
edge_name[16_7] 0
edge_name[16_8] 0
edge_name[16_9] 0
edge_name[16_10] 0
edge_name[16_11] 0
edge_name[16_12] 0
edge_name[16_13] 0
edge_name[16_14] 0
edge_name[16_15] 0
edge_name[16_16] 0
edge_name[16_17] 0
edge_name[16_18] 0
edge_name[16_19] 0
edge_name[16_20] 0
edge_name[16_21] 1.3068455605146970e-02
edge_name[16_22] 0
edge_name[16_23] 0
edge_name[16_24] 0
edge_name[16_25] 0
edge_name[16_26] 0
edge_name[16_27] 0
edge_name[16_28] 0
edge_name[16_29] 0
edge_name[17_0] 0
edge_name[17_1] 0
edge_name[17_2] 2.5453431528438175e-01
edge_name[17_3] 0
edge_name[17_4] 0
edge_name[17_5] 0
edge_name[17_6] 0
edge_name[17_7] 0
edge_name[17_8] 0
edge_name[17_9] 0
edge_name[17_10] 0
edge_name[17_11] 0
edge_name[17_12] 0
edge_name[17_13] 0
edge_name[17_14] 0
edge_name[17_15] 0
edge_name[17_16] 0
edge_name[17_17] 0
edge_name[17_18] 0
edge_name[17_19] 0
edge_name[17_20] 0
edge_name[17_21] 0
edge_name[17_22] 0
edge_name[17_23] 0
edge_name[17_24] 0
edge_name[17_25] 0
edge_name[17_26] 0
edge_name[17_27] 0
edge_name[17_28] 3.3466837848079228e-01
edge_name[17_29] 0
edge_name[18_0] 0
edge_name[18_1] 0
edge_name[18_2] 0
edge_name[18_3] 0
edge_name[18_4] 1.4592590338354461e-01
edge_name[18_5] 0
edge_name[18_6] 0
edge_name[18_7] 0
edge_name[18_8] 0
edge_name[18_9] 0
edge_name[18_10] 0
edge_name[18_11] 0
edge_name[18_12] 0
edge_name[18_13] 0
edge_name[18_14] 0
edge_name[18_15] 0
edge_name[18_16] 0
edge_name[18_17] 0
edge_name[18_18] 0
edge_name[18_19] 0
edge_name[18_20] 0
edge_name[18_21] 0
edge_name[18_22] 0
edge_name[18_23] 0
edge_name[18_24] 0
edge_name[18_25] 0
edge_name[18_26] 0
edge_name[18_27] 0
edge_name[18_28] 0
edge_name[18_29] 0
edge_name[19_0] 0
edge_name[19_1] 0
edge_name[19_2] 0
edge_name[19_3] 0
edge_name[19_4] 0
edge_name[19_5] 0
edge_name[19_6] 0
edge_name[19_7] 0
edge_name[19_8] 0
edge_name[19_9] 0
edge_name[19_10] 0
edge_name[19_11] 0
edge_name[19_12] 0
edge_name[19_13] 0
edge_name[19_14] 0
edge_name[19_15] 0
edge_name[19_16] 0
edge_name[19_17] 0
edge_name[19_18] 0
edge_name[19_19] 0
edge_name[19_20] 0
edge_name[19_21] 0
edge_name[19_22] 0
edge_name[19_23] 0
edge_name[19_24] 0
edge_name[19_25] 0
edge_name[19_26] 0
edge_name[19_27] 0
edge_name[19_28] 0
edge_name[19_29] 0
edge_name[20_0] 0
edge_name[20_1] 0
edge_name[20_2] 0
edge_name[20_3] 0
edge_name[20_4] 0
edge_name[20_5] 0
edge_name[20_6] 0
edge_name[20_7] 0
edge_name[20_8] 0
edge_name[20_9] 0
edge_name[20_10] 0
edge_name[20_11] 0
edge_name[20_12] 0
edge_name[20_13] 0
edge_name[20_14] 0
edge_name[20_15] 0
edge_name[20_16] 0
edge_name[20_17] 0
edge_name[20_18] 0
edge_name[20_19] 0
edge_name[20_20] 0
edge_name[20_21] 0
edge_name[20_22] 0
edge_name[20_23] 0
edge_name[20_24] 0
edge_name[20_25] 0
edge_name[20_26] 0
edge_name[20_27] 0
edge_name[20_28] 0
edge_name[20_29] 2.8368312523588446e-01
edge_name[21_0] 0
edge_name[21_1] 0
edge_name[21_2] 0
edge_name[21_3] 0
edge_name[21_4] 0
edge_name[21_5] 0
edge_name[21_6] 0
edge_name[21_7] 0
edge_name[21_8] 7.2058654964264479e-01
edge_name[21_9] 0
edge_name[21_10] 0
edge_name[21_11] 0
edge_name[21_12] 0
edge_name[21_13] 7.2058654964264479e-01
edge_name[21_14] 0
edge_name[21_15] 0
edge_name[21_16] 7.2058654964264479e-01
edge_name[21_17] 0
edge_name[21_18] 0
edge_name[21_19] 0
edge_name[21_20] 0
edge_name[21_21] 0
edge_name[21_22] 0
edge_name[21_23] 0
edge_name[21_24] 0
edge_name[21_25] 0
edge_name[21_26] 0
edge_name[21_27] 7.2058654964264479e-01
edge_name[21_28] 0
edge_name[21_29] 0
edge_name[22_0] 0
edge_name[22_1] 1.0729204811369840e-01
edge_name[22_2] 0
edge_name[22_3] 0
edge_name[22_4] 0
edge_name[22_5] 0
edge_name[22_6] 0
edge_name[22_7] 2.5655048115035273e-01
edge_name[22_8] 0
edge_name[22_9] 0
edge_name[22_10] 0
edge_name[22_11] 0
edge_name[22_12] 0
edge_name[22_13] 0
edge_name[22_14] 0
edge_name[22_15] 0
edge_name[22_16] 0
edge_name[22_17] 0
edge_name[22_18] 0
edge_name[22_19] 0
edge_name[22_20] 0
edge_name[22_21] 0
edge_name[22_22] 0
edge_name[22_23] 0
edge_name[22_24] 0
edge_name[22_25] 0
edge_name[22_26] 0
edge_name[22_27] 0
edge_name[22_28] 0
edge_name[22_29] 0
edge_name[23_0] 0
edge_name[23_1] 0
edge_name[23_2] 0
edge_name[23_3] 0
edge_name[23_4] 1.1949975628308046e-01
edge_name[23_5] 0
edge_name[23_6] 0
edge_name[23_7] 0
edge_name[23_8] 0
edge_name[23_9] 0
edge_name[23_10] 0
edge_name[23_11] 0
edge_name[23_12] 0
edge_name[23_13] 0
edge_name[23_14] 0
edge_name[23_15] 0
edge_name[23_16] 0
edge_name[23_17] 0
edge_name[23_18] 0
edge_name[23_19] 0
edge_name[23_20] 0
edge_name[23_21] 0
edge_name[23_22] 0
edge_name[23_23] 0
edge_name[23_24] 0
edge_name[23_25] 0
edge_name[23_26] 0
edge_name[23_27] 0
edge_name[23_28] 0
edge_name[23_29] 0
edge_name[24_0] 0
edge_name[24_1] 0
edge_name[24_2] 0
edge_name[24_3] 0
edge_name[24_4] 0
edge_name[24_5] 0
edge_name[24_6] 3.0634898258775711e-01
edge_name[24_7] 0
edge_name[24_8] 0
edge_name[24_9] 0
edge_name[24_10] 0
edge_name[24_11] 0
edge_name[24_12] 0
edge_name[24_13] 0
edge_name[24_14] 0
edge_name[24_15] 0
edge_name[24_16] 0
edge_name[24_17] 0
edge_name[24_18] 0
edge_name[24_19] 0
edge_name[24_20] 0
edge_name[24_21] 0
edge_name[24_22] 0
edge_name[24_23] 0
edge_name[24_24] 0
edge_name[24_25] 0
edge_name[24_26] 0
edge_name[24_27] 0
edge_name[24_28] 0
edge_name[24_29] 0
edge_name[25_0] 0
edge_name[25_1] 0
edge_name[25_2] 0
edge_name[25_3] 9.9364260811272129e-02
edge_name[25_4] 0
edge_name[25_5] 0
edge_name[25_6] 0
edge_name[25_7] 0
edge_name[25_8] 0
edge_name[25_9] 0
edge_name[25_10] 0
edge_name[25_11] 0
edge_name[25_12] 0
edge_name[25_13] 0
edge_name[25_14] 0
edge_name[25_15] 0
edge_name[25_16] 0
edge_name[25_17] 0
edge_name[25_18] 0
edge_name[25_19] 0
edge_name[25_20] 0
edge_name[25_21] 0
edge_name[25_22] 0
edge_name[25_23] 0
edge_name[25_24] 0
edge_name[25_25] 0
edge_name[25_26] 0
edge_name[25_27] 0
edge_name[25_28] 0
edge_name[25_29] 0
edge_name[26_0] 0
edge_name[26_1] 0
edge_name[26_2] 0
edge_name[26_3] 0
edge_name[26_4] 0
edge_name[26_5] 0
edge_name[26_6] 0
edge_name[26_7] 0
edge_name[26_8] 0
edge_name[26_9] 0
edge_name[26_10] 0
edge_name[26_11] 0
edge_name[26_12] 0
edge_name[26_13] 0
edge_name[26_14] 0
edge_name[26_15] 0
edge_name[26_16] 0
edge_name[26_17] 0
edge_name[26_18] 0
edge_name[26_19] 0
edge_name[26_20] 0
edge_name[26_21] 0
edge_name[26_22] 0
edge_name[26_23] 0
edge_name[26_24] 0
edge_name[26_25] 0
edge_name[26_26] 0
edge_name[26_27] 0
edge_name[26_28] 0
edge_name[26_29] 0
edge_name[27_0] 0
edge_name[27_1] 0
edge_name[27_2] 0
edge_name[27_3] 0
edge_name[27_4] 0
edge_name[27_5] 0
edge_name[27_6] 0
edge_name[27_7] 0
edge_name[27_8] 0
edge_name[27_9] 0
edge_name[27_10] 0
edge_name[27_11] 0
edge_name[27_12] 0
edge_name[27_13] 0
edge_name[27_14] 0
edge_name[27_15] 0
edge_name[27_16] 0
edge_name[27_17] 0
edge_name[27_18] 0
edge_name[27_19] 0
edge_name[27_20] 0
edge_name[27_21] 1.3765357053763713e-01
edge_name[27_22] 0
edge_name[27_23] 0
edge_name[27_24] 0
edge_name[27_25] 0
edge_name[27_26] 0
edge_name[27_27] 0
edge_name[27_28] 0
edge_name[27_29] 0
edge_name[28_0] 0
edge_name[28_1] 0
edge_name[28_2] 0
edge_name[28_3] 0
edge_name[28_4] 0
edge_name[28_5] 0
edge_name[28_6] 0
edge_name[28_7] 0
edge_name[28_8] 0
edge_name[28_9] 0
edge_name[28_10] 0
edge_name[28_11] 0
edge_name[28_12] 0
edge_name[28_13] 0
edge_name[28_14] 0
edge_name[28_15] 0
edge_name[28_16] 0
edge_name[28_17] 3.1454091755595470e-01
edge_name[28_18] 0
edge_name[28_19] 0
edge_name[28_20] 0
edge_name[28_21] 0
edge_name[28_22] 0
edge_name[28_23] 0
edge_name[28_24] 0
edge_name[28_25] 0
edge_name[28_26] 0
edge_name[28_27] 0
edge_name[28_28] 0
edge_name[28_29] 0
edge_name[29_0] 0
edge_name[29_1] 0
edge_name[29_2] 0
edge_name[29_3] 0
edge_name[29_4] 0
edge_name[29_5] 0
edge_name[29_6] 0
edge_name[29_7] 0
edge_name[29_8] 0
edge_name[29_9] 0
edge_name[29_10] 5.6286328336082825e-01
edge_name[29_11] 0
edge_name[29_12] 0
edge_name[29_13] 0
edge_name[29_14] 0
edge_name[29_15] 0
edge_name[29_16] 0
edge_name[29_17] 0
edge_name[29_18] 0
edge_name[29_19] 0
edge_name[29_20] 4.9270706207077863e-01
edge_name[29_21] 0
edge_name[29_22] 0
edge_name[29_23] 0
edge_name[29_24] 0
edge_name[29_25] 0
edge_name[29_26] 0
edge_name[29_27] 0
edge_name[29_28] 0
edge_name[29_29] 0
